results/heuristics/cvrp_hgs/Vrp-Set-A-n34/Vrp-Set-A-n34-hgs/0.hgs1.vrp
NAME : 0
COMMENT : CVRP Instance
TYPE : CVRP
DIMENSION : 34
EDGE_WEIGHT_TYPE : EUC_2D
CAPACITY : 100
NODE_COORD_SECTION
1	0.073	0.039
2	0.067	0.091
3	0.039	0.021
4	0.003	0.009
5	0.097	0.015
6	0.091	0.065
7	0.055	0.075
8	0.055	0.071
9	0.057	0.085
10	0.021	0.015
11	0.047	0.057
12	0.051	0.097
13	0.011	0.011
14	0.043	0.059
15	0.063	0.069
16	0.055	0.077
17	0.035	0.011
18	0.027	0.091
19	0.049	0.025
20	0.029	0.093
21	0.071	0.027
22	0.031	0.043
23	0.027	0.009
24	0.067	0.099
25	0.087	0.081
26	0.023	0.081
27	0.089	0.033
28	0.071	0.091
29	0.019	0.077
30	0.065	0.077
31	0.087	0.079
32	0.019	0.083
33	0.001	0.059
34	0.055	0.007
DEMAND_SECTION
1	0
2	23
3	3
4	24
5	15
6	15
7	24
8	7
9	25
10	13
11	5
12	7
13	5
14	14
15	13
16	5
17	24
18	15
19	9
20	16
21	13
22	16
23	13
24	24
25	20
26	23
27	20
28	3
29	15
30	12
31	19
32	4
33	15
34	1
DEPOT_SECTION
1
-1
EOF
