results/heuristics/cvrp_hgs/Vrp-Set-A-n34/Vrp-Set-A-n34-hgs/0.hgs1.tour
Route #1: 2 9 12 3 22 16 33 20
Route #2: 24 30 5 26 4
Route #3: 7 6 15 8 29 14
Route #4: 27 1 23 11 19 17 10
Route #5: 13 25 31 28 32 21 18
Cost 0.780936
